144895
97, 8, 92, 23, 80, 57, 83, 9, 34, 26, 50, 68, 19, 99, 81, 42, 106, 12, 93, 89, 76, 10, 66, 59, 44, 28, 27, 87, 1, 58, 24, 102, 74, 14, 61, 47, 103, 75, 18, 70, 37, 49, 39, 73, 48, 85, 36, 71, 54, 95, 67, 11, 41, 104, 38, 105, 101, 3, 94, 78, 96, 60, 91, 79, 43, 15, 4, 35, 63, 32, 7, 84, 53, 33, 2, 72, 82, 51, 100, 45, 25, 62, 22, 86, 46, 77, 21, 17, 90, 64, 16, 20, 56, 40, 6, 69, 98, 88, 13, 65, 31, 52, 5, 29, 30, 55
